letting n =  10
letting blocks =  [[1, 3], [1, 5], [1, 6], [1, 8], [1, 10], [2, 3], [2, 5], [2, 7], [2, 8], [3, 5], [3, 6], [3, 7], [3, 8], [4, 5], [5, 3], [5, 4], [5, 6], [5, 8], [6, 8], [6, 10], [7, 6], [8, 4], [9, 1], [9, 4]]
